========================================================== 
File name: C:\DEGR\assets\definitions\MSRCPSP_Gen\200_20_64_5_B.def
Creation date: Wed May 03 10:46:01 CEST 2023
Website: http://imopse.ii.pwr.edu.pl/ 
Reference: 
Myszkowski P. B., Skowronski M. E., Olech L., Oslizlo K., 
Hybrid Ant Colony Optimization in solving Multi-Skill Resource-Constrained Project Scheduling Problem, 
Soft Computing, DOI: DOI 10.1007/s00500-014-1455-x 
========================================================== 
General characteristics: 
Tasks: 200
Resources: 20
Precedence relations: 64
Number of skill types: 5
========================================================== 
ResourceID 	 Salary 	 Skills 
1	 	 	88.8	 	 Q2: 3 	  Q0: 0 	  Q4: 0 	  Q3: 1 	 
2	 	 	22.8	 	 Q2: 0 	  Q1: 3 	  Q4: 3 	  Q3: 0 	 
3	 	 	23.7	 	 Q4: 3 	  Q1: 3 	  Q0: 1 	 
4	 	 	94.5	 	 Q4: 3 	 
5	 	 	63.9	 	 Q3: 1 	  Q0: 2 	  Q1: 3 	  Q4: 3 	 
6	 	 	98.7	 	 Q4: 2 	  Q0: 3 	  Q2: 2 	 
7	 	 	60.6	 	 Q0: 3 	  Q4: 0 	  Q3: 3 	 
8	 	 	27.9	 	 Q3: 1 	  Q4: 0 	  Q0: 3 	  Q1: 0 	 
9	 	 	31.7	 	 Q1: 1 	 
10	 	 	89.2	 	 Q4: 3 	  Q0: 2 	 
11	 	 	85.1	 	 Q1: 2 	  Q2: 1 	  Q3: 3 	 
12	 	 	23.1	 	 Q4: 2 	  Q1: 3 	  Q3: 2 	 
13	 	 	57.0	 	 Q1: 1 	 
14	 	 	82.0	 	 Q4: 0 	  Q3: 2 	 
15	 	 	17.3	 	 Q1: 1 	  Q3: 2 	  Q2: 0 	 
16	 	 	93.7	 	 Q3: 0 	  Q2: 1 	  Q1: 3 	 
17	 	 	39.3	 	 Q2: 0 	 
18	 	 	51.8	 	 Q1: 2 	  Q2: 3 	  Q4: 0 	  Q3: 0 	 
19	 	 	33.9	 	 Q3: 2 	  Q4: 2 	  Q0: 1 	 
20	 	 	50.9	 	 Q4: 2 	  Q2: 1 	  Q3: 2 	 
========================================================== 
TaskID 	 Duration 	 Skill 	 Predecessor IDs 
1	40	Q3:	1
2	38	Q2:	0
3	12	Q3:	3
4	14	Q1:	2
5	30	Q2:	0
6	15	Q4:	2
7	11	Q0:	3
8	19	Q0:	0
9	39	Q4:	2
10	28	Q4:	0
11	37	Q4:	2
12	31	Q1:	0
13	10	Q3:	0
14	20	Q3:	1
15	11	Q2:	1
16	22	Q1:	0
17	30	Q0:	2
18	36	Q0:	2
19	19	Q1:	1
20	32	Q4:	3	13
21	31	Q2:	3
22	37	Q0:	1
23	9	Q0:	3
24	15	Q3:	2
25	24	Q2:	2
26	27	Q0:	3
27	11	Q1:	3	7
28	9	Q1:	2
29	17	Q0:	3
30	14	Q0:	1
31	38	Q4:	0
32	32	Q2:	1
33	23	Q2:	0	4	12
34	12	Q0:	2	20
35	15	Q4:	2
36	14	Q1:	0
37	21	Q0:	0
38	37	Q0:	3
39	11	Q2:	0
40	20	Q2:	3
41	34	Q0:	1
42	28	Q0:	0
43	35	Q1:	1
44	38	Q4:	3
45	35	Q3:	2
46	18	Q1:	0
47	34	Q4:	2
48	35	Q3:	1
49	11	Q0:	0
50	13	Q2:	3
51	26	Q0:	2
52	24	Q3:	0
53	37	Q1:	2	21
54	17	Q4:	2
55	17	Q1:	3
56	26	Q4:	0
57	32	Q1:	3
58	17	Q2:	1
59	26	Q1:	2
60	31	Q4:	0	26
61	33	Q1:	2
62	35	Q4:	2
63	17	Q4:	3
64	29	Q4:	0	36
65	40	Q3:	3
66	36	Q3:	2
67	32	Q3:	2
68	29	Q4:	0
69	13	Q2:	3
70	36	Q4:	3
71	17	Q4:	3
72	23	Q0:	2	12
73	35	Q3:	2
74	17	Q2:	2
75	21	Q2:	3
76	10	Q4:	2
77	33	Q1:	1	12
78	39	Q0:	2
79	24	Q0:	2	8
80	28	Q4:	0	14
81	22	Q0:	0
82	19	Q4:	2	74
83	32	Q1:	2
84	29	Q2:	3
85	28	Q2:	2	62
86	22	Q3:	3
87	16	Q0:	2
88	32	Q3:	0	29
89	22	Q0:	3
90	12	Q1:	0
91	14	Q4:	0	12	68
92	32	Q3:	3
93	36	Q4:	3	38
94	22	Q0:	2
95	14	Q3:	3
96	25	Q0:	3
97	15	Q2:	3
98	31	Q3:	0
99	12	Q4:	0
100	23	Q3:	1
101	23	Q0:	3
102	35	Q3:	2	22	100
103	21	Q3:	1
104	38	Q2:	3
105	19	Q1:	0
106	29	Q3:	1	91
107	36	Q3:	1
108	14	Q0:	2	83
109	11	Q0:	2	93
110	22	Q0:	0
111	35	Q4:	3
112	16	Q0:	0
113	24	Q2:	1	21
114	34	Q1:	3
115	23	Q2:	2
116	19	Q3:	3
117	11	Q3:	3
118	34	Q4:	2
119	34	Q1:	3	116
120	24	Q4:	2
121	24	Q3:	3
122	39	Q4:	3	40
123	15	Q0:	1	2
124	38	Q0:	1
125	22	Q3:	0
126	10	Q0:	2	36
127	10	Q1:	3
128	40	Q2:	0
129	25	Q2:	3
130	35	Q2:	2	35
131	26	Q0:	3	49
132	33	Q1:	0
133	28	Q1:	2
134	28	Q1:	0
135	9	Q4:	2
136	34	Q2:	1
137	32	Q3:	3	73
138	20	Q0:	2
139	9	Q1:	0	114
140	28	Q0:	0	74
141	24	Q0:	1	68	115
142	16	Q1:	3
143	12	Q4:	2
144	29	Q4:	2
145	19	Q3:	3	77
146	37	Q2:	0
147	13	Q1:	3	89
148	13	Q2:	3
149	17	Q2:	0
150	27	Q3:	1	23	11	77
151	38	Q1:	0
152	36	Q4:	0
153	10	Q2:	3
154	28	Q2:	3
155	28	Q2:	1
156	20	Q2:	1
157	27	Q1:	2	108
158	18	Q0:	0	123
159	13	Q1:	1
160	20	Q3:	3	65	42
161	15	Q4:	3
162	21	Q4:	3
163	18	Q0:	1
164	38	Q2:	3
165	26	Q3:	3	59
166	11	Q3:	2
167	19	Q0:	3	37
168	20	Q4:	0
169	32	Q4:	2	166
170	15	Q3:	0	86	159	142
171	30	Q4:	2	46	54
172	22	Q1:	2	11
173	24	Q3:	3	167	170
174	35	Q2:	1
175	38	Q0:	2
176	20	Q4:	0	47
177	24	Q0:	0	119
178	18	Q1:	0
179	24	Q2:	3	137
180	21	Q3:	1
181	11	Q0:	3
182	33	Q2:	0
183	33	Q4:	2	69
184	24	Q1:	3	13
185	34	Q4:	2	55
186	37	Q3:	2
187	26	Q3:	2	108
188	13	Q2:	2
189	33	Q3:	1
190	26	Q0:	1
191	28	Q0:	3	173
192	38	Q0:	0
193	33	Q3:	0	118
194	29	Q0:	0
195	15	Q0:	1
196	11	Q0:	2
197	24	Q1:	3
198	16	Q2:	1
199	14	Q0:	3
200	32	Q4:	3
========================================================== 